Welcome to the CBC MILP Solver 
Version: 2.10.7 
Build Date: Feb 14 2022 

command line - cbc inputs/new_tr/order/default30_down_left_input.lp sec 1800 solve solu solutions/new_tr/default30_down_left_input.lp (default strategy 1)
seconds was changed from 1e+100 to 1800
Continuous objective value is 27136 - 0.01 seconds
Cgl0002I 579 variables fixed
Cgl0003I 0 fixed, 1 tightened bounds, 295 strengthened rows, 0 substitutions
Cgl0003I 0 fixed, 0 tightened bounds, 12 strengthened rows, 0 substitutions
Cgl0003I 0 fixed, 0 tightened bounds, 1 strengthened rows, 0 substitutions
Cgl0004I processed model has 1481 rows, 489 columns (489 integer (458 of which binary)) and 4851 elements
Cutoff increment increased from 1e-05 to 0.9999
Cbc0045I 1 integer variables out of 489 objects (489 integer) have cost of 1 - high priority
Cbc0045I branch on satisfied Y create fake objective Y random cost Y
Cbc0038I Initial state - 136 integers unsatisfied sum - 26.3032
Cbc0038I Pass   1: suminf.   15.48950 (63) obj. 29875.9 iterations 294
Cbc0038I Pass   2: suminf.   14.91081 (58) obj. 29872.8 iterations 119
Cbc0038I Pass   3: suminf.   13.41240 (64) obj. 29875.1 iterations 78
Cbc0038I Pass   4: suminf.    5.15687 (46) obj. 31744 iterations 90
Cbc0038I Pass   5: suminf.    4.84530 (44) obj. 31744 iterations 32
Cbc0038I Pass   6: suminf.    1.25000 (11) obj. 31744 iterations 40
Cbc0038I Pass   7: suminf.    1.25000 (11) obj. 31744 iterations 4
Cbc0038I Pass   8: suminf.    1.16746 (13) obj. 31744 iterations 22
Cbc0038I Pass   9: suminf.    1.10042 (11) obj. 31744 iterations 24
Cbc0038I Pass  10: suminf.    0.77334 (8) obj. 31744 iterations 8
Cbc0038I Pass  11: suminf.    0.00000 (0) obj. 31744 iterations 15
Cbc0038I Solution found of 31744
Cbc0038I Cleaned solution of 31744
Cbc0038I Before mini branch and bound, 330 integers at bound fixed and 0 continuous
Cbc0038I Full problem 1481 rows 489 columns, reduced to 161 rows 64 columns
Cbc0038I Mini branch and bound improved solution from 31744 to 28672 (0.13 seconds)
Cbc0038I Round again with cutoff of 28517.5
Cbc0038I Reduced cost fixing fixed 11 variables on major pass 2
Cbc0038I Pass  12: suminf.   16.02125 (70) obj. 28517 iterations 30
Cbc0038I Pass  13: suminf.   14.98747 (71) obj. 28517.5 iterations 91
Cbc0038I Pass  14: suminf.    8.95669 (52) obj. 28517.5 iterations 75
Cbc0038I Pass  15: suminf.    8.95669 (52) obj. 28517.5 iterations 4
Cbc0038I Pass  16: suminf.    3.47395 (18) obj. 28517.5 iterations 91
Cbc0038I Pass  17: suminf.    1.25430 (12) obj. 28517.5 iterations 20
Cbc0038I Pass  18: suminf.    5.49344 (26) obj. 28517.5 iterations 22
Cbc0038I Pass  19: suminf.    4.88194 (25) obj. 28517.5 iterations 3
Cbc0038I Pass  20: suminf.    6.12725 (27) obj. 28517.5 iterations 42
Cbc0038I Pass  21: suminf.    4.54136 (26) obj. 28517.5 iterations 10
Cbc0038I Pass  22: suminf.    6.85260 (32) obj. 28517.5 iterations 53
Cbc0038I Pass  23: suminf.    6.82677 (33) obj. 28517.5 iterations 12
Cbc0038I Pass  24: suminf.    6.83397 (34) obj. 28517.5 iterations 12
Cbc0038I Pass  25: suminf.    5.26280 (33) obj. 28517.5 iterations 48
Cbc0038I Pass  26: suminf.    4.68874 (36) obj. 28517.5 iterations 54
Cbc0038I Pass  27: suminf.    8.82734 (38) obj. 28517.5 iterations 87
Cbc0038I Pass  28: suminf.    7.76978 (35) obj. 28517.5 iterations 14
Cbc0038I Pass  29: suminf.    4.11724 (33) obj. 28517.5 iterations 47
Cbc0038I Pass  30: suminf.    3.61136 (31) obj. 28517.5 iterations 13
Cbc0038I Pass  31: suminf.    5.80482 (35) obj. 28517.5 iterations 65
Cbc0038I Pass  32: suminf.    5.61043 (33) obj. 28517.5 iterations 3
Cbc0038I Pass  33: suminf.    6.09808 (32) obj. 28517.5 iterations 85
Cbc0038I Pass  34: suminf.    4.97799 (33) obj. 28517.5 iterations 41
Cbc0038I Pass  35: suminf.    7.45053 (32) obj. 28517.5 iterations 28
Cbc0038I Pass  36: suminf.    6.88054 (35) obj. 28517.5 iterations 2
Cbc0038I Pass  37: suminf.    6.88054 (35) obj. 28517.5 iterations 1
Cbc0038I Pass  38: suminf.    4.97317 (32) obj. 28517.5 iterations 43
Cbc0038I Pass  39: suminf.    4.16607 (33) obj. 28517.5 iterations 8
Cbc0038I Pass  40: suminf.    5.95940 (29) obj. 28517.5 iterations 29
Cbc0038I Pass  41: suminf.    5.78152 (30) obj. 28517.5 iterations 46
Cbc0038I Pass  42: suminf.    3.96624 (30) obj. 28517.5 iterations 8
Cbc0038I Pass  43: suminf.    7.71112 (30) obj. 28517.5 iterations 44
Cbc0038I Pass  44: suminf.    6.08655 (33) obj. 28517.5 iterations 50
Cbc0038I Pass  45: suminf.    5.25101 (37) obj. 28517.5 iterations 53
Cbc0038I Pass  46: suminf.    5.47236 (36) obj. 28517.5 iterations 30
Cbc0038I Pass  47: suminf.    5.71052 (31) obj. 28517.5 iterations 94
Cbc0038I Pass  48: suminf.    5.62542 (31) obj. 28517.5 iterations 40
Cbc0038I Pass  49: suminf.    3.44464 (25) obj. 28517.5 iterations 76
Cbc0038I Pass  50: suminf.    2.70879 (23) obj. 28517.5 iterations 10
Cbc0038I Pass  51: suminf.    4.49991 (13) obj. 28517.5 iterations 59
Cbc0038I Pass  52: suminf.    1.25430 (12) obj. 28517.5 iterations 89
Cbc0038I Pass  53: suminf.    4.02506 (12) obj. 28517.5 iterations 36
Cbc0038I Pass  54: suminf.   30.99901 (148) obj. 28517.5 iterations 293
Cbc0038I Pass  55: suminf.   19.93405 (117) obj. 28517.5 iterations 132
Cbc0038I Pass  56: suminf.   18.70848 (116) obj. 28517.5 iterations 14
Cbc0038I Pass  57: suminf.   14.19085 (101) obj. 28517.5 iterations 123
Cbc0038I Pass  58: suminf.   14.22686 (102) obj. 28517.5 iterations 3
Cbc0038I Pass  59: suminf.    9.75935 (87) obj. 28517.5 iterations 97
Cbc0038I Pass  60: suminf.    8.43708 (81) obj. 28517.5 iterations 53
Cbc0038I Pass  61: suminf.    9.52052 (79) obj. 28517.5 iterations 79
Cbc0038I Pass  62: suminf.    9.28986 (81) obj. 28517.5 iterations 6
Cbc0038I Pass  63: suminf.    9.33712 (68) obj. 28517.5 iterations 80
Cbc0038I Pass  64: suminf.    7.80747 (62) obj. 28517.5 iterations 33
Cbc0038I Pass  65: suminf.    6.20437 (45) obj. 28517.5 iterations 88
Cbc0038I Pass  66: suminf.    5.60164 (48) obj. 28517.5 iterations 15
Cbc0038I Pass  67: suminf.    6.44298 (64) obj. 28517.5 iterations 181
Cbc0038I Pass  68: suminf.    6.20894 (62) obj. 28517.5 iterations 14
Cbc0038I Pass  69: suminf.    2.56871 (52) obj. 28517.5 iterations 51
Cbc0038I Pass  70: suminf.    2.56871 (52) obj. 28517.5 iterations 1
Cbc0038I Pass  71: suminf.    4.82348 (26) obj. 28517.5 iterations 75
Cbc0038I Pass  72: suminf.    4.84592 (27) obj. 28517.5 iterations 6
Cbc0038I Pass  73: suminf.    5.24393 (26) obj. 28517.5 iterations 45
Cbc0038I Pass  74: suminf.    2.23848 (31) obj. 28517.5 iterations 30
Cbc0038I Pass  75: suminf.    2.03198 (29) obj. 28517.5 iterations 11
Cbc0038I Pass  76: suminf.    3.67224 (28) obj. 28517.5 iterations 33
Cbc0038I Pass  77: suminf.    4.61537 (27) obj. 28517.5 iterations 23
Cbc0038I Pass  78: suminf.    4.86332 (25) obj. 28517.5 iterations 12
Cbc0038I Pass  79: suminf.    4.61843 (25) obj. 28517.5 iterations 36
Cbc0038I Pass  80: suminf.    4.57804 (27) obj. 28517.5 iterations 13
Cbc0038I Pass  81: suminf.    4.94235 (24) obj. 28517.5 iterations 31
Cbc0038I Pass  82: suminf.    6.66809 (33) obj. 28517.5 iterations 20
Cbc0038I Pass  83: suminf.    6.63616 (33) obj. 28517.5 iterations 3
Cbc0038I Pass  84: suminf.    4.45224 (32) obj. 28517.5 iterations 31
Cbc0038I Pass  85: suminf.    3.41102 (26) obj. 28517.5 iterations 23
Cbc0038I Pass  86: suminf.    5.73789 (35) obj. 28517.5 iterations 70
Cbc0038I Pass  87: suminf.    5.52802 (24) obj. 28517.5 iterations 22
Cbc0038I Pass  88: suminf.    2.47694 (23) obj. 28517.5 iterations 41
Cbc0038I Pass  89: suminf.    1.91292 (17) obj. 28517.5 iterations 9
Cbc0038I Pass  90: suminf.    5.33828 (24) obj. 28517.5 iterations 23
Cbc0038I Pass  91: suminf.    5.37096 (24) obj. 28517.5 iterations 5
Cbc0038I Pass  92: suminf.    1.56930 (21) obj. 28517.5 iterations 42
Cbc0038I Pass  93: suminf.    1.56930 (21) obj. 28517.5 iterations 4
Cbc0038I Pass  94: suminf.    4.98467 (21) obj. 28517.5 iterations 47
Cbc0038I Pass  95: suminf.    2.11508 (23) obj. 28517.5 iterations 38
Cbc0038I Pass  96: suminf.    1.91292 (17) obj. 28517.5 iterations 6
Cbc0038I Pass  97: suminf.    5.33420 (29) obj. 28517.5 iterations 23
Cbc0038I Pass  98: suminf.    5.33758 (25) obj. 28517.5 iterations 3
Cbc0038I Pass  99: suminf.    3.02579 (31) obj. 28517.5 iterations 43
Cbc0038I Pass 100: suminf.    2.00578 (27) obj. 28517.5 iterations 20
Cbc0038I Pass 101: suminf.    3.42072 (31) obj. 28517.5 iterations 47
Cbc0038I Pass 102: suminf.    3.29268 (30) obj. 28517.5 iterations 20
Cbc0038I Pass 103: suminf.    4.91669 (34) obj. 28517.5 iterations 85
Cbc0038I Pass 104: suminf.    4.39365 (33) obj. 28517.5 iterations 14
Cbc0038I Pass 105: suminf.    7.34666 (36) obj. 28517.5 iterations 52
Cbc0038I Pass 106: suminf.    5.88168 (33) obj. 28517.5 iterations 11
Cbc0038I Pass 107: suminf.    5.88168 (33) obj. 28517.5 iterations 0
Cbc0038I Pass 108: suminf.    5.65045 (26) obj. 28517.5 iterations 36
Cbc0038I Pass 109: suminf.    3.96607 (28) obj. 28517.5 iterations 11
Cbc0038I Pass 110: suminf.    4.53258 (29) obj. 28517.5 iterations 42
Cbc0038I Pass 111: suminf.   36.97046 (166) obj. 28517.5 iterations 282
Cbc0038I No solution found this major pass
Cbc0038I Before mini branch and bound, 156 integers at bound fixed and 0 continuous
Cbc0038I Full problem 1481 rows 489 columns, reduced to 1090 rows 333 columns - 103 fixed gives 648, 150 - ok now
Cbc0038I Full problem 1481 rows 489 columns, reduced to 271 rows 101 columns
Cbc0038I Mini branch and bound did not improve solution (0.44 seconds)
Cbc0038I After 0.44 seconds - Feasibility pump exiting with objective of 28672 - took 0.38 seconds
Cbc0012I Integer solution of 28672 found by feasibility pump after 0 iterations and 0 nodes (0.44 seconds)
Cbc0038I Full problem 1481 rows 489 columns, reduced to 61 rows 26 columns
Cbc0006I The LP relaxation is infeasible or too expensive
Cbc0013I At root node, 0 cuts changed objective from 27136 to 27136 in 1 passes
Cbc0014I Cut generator 0 (Probing) - 1 row cuts average 0.0 elements, 0 column cuts (0 active)  in 0.000 seconds - new frequency is 1
Cbc0014I Cut generator 1 (Gomory) - 0 row cuts average 0.0 elements, 0 column cuts (0 active)  in 0.000 seconds - new frequency is -100
Cbc0014I Cut generator 2 (Knapsack) - 0 row cuts average 0.0 elements, 0 column cuts (0 active)  in 0.000 seconds - new frequency is -100
Cbc0014I Cut generator 3 (Clique) - 0 row cuts average 0.0 elements, 0 column cuts (0 active)  in 0.000 seconds - new frequency is -100
Cbc0014I Cut generator 4 (MixedIntegerRounding2) - 0 row cuts average 0.0 elements, 0 column cuts (0 active)  in 0.000 seconds - new frequency is -100
Cbc0014I Cut generator 5 (FlowCover) - 0 row cuts average 0.0 elements, 0 column cuts (0 active)  in 0.000 seconds - new frequency is -100
Cbc0014I Cut generator 6 (TwoMirCuts) - 0 row cuts average 0.0 elements, 0 column cuts (0 active)  in 0.000 seconds - new frequency is -100
Cbc0014I Cut generator 7 (ZeroHalf) - 0 row cuts average 0.0 elements, 0 column cuts (0 active)  in 0.000 seconds - new frequency is -100
Cbc0001I Search completed - best objective 28672, took 0 iterations and 0 nodes (0.49 seconds)
Cbc0035I Maximum depth 0, 11 variables fixed on reduced cost
Cuts at root node changed objective from 27136 to 27136
Probing was tried 1 times and created 1 cuts of which 0 were active after adding rounds of cuts (0.000 seconds)
Gomory was tried 0 times and created 0 cuts of which 0 were active after adding rounds of cuts (0.000 seconds)
Knapsack was tried 0 times and created 0 cuts of which 0 were active after adding rounds of cuts (0.000 seconds)
Clique was tried 0 times and created 0 cuts of which 0 were active after adding rounds of cuts (0.000 seconds)
MixedIntegerRounding2 was tried 0 times and created 0 cuts of which 0 were active after adding rounds of cuts (0.000 seconds)
FlowCover was tried 0 times and created 0 cuts of which 0 were active after adding rounds of cuts (0.000 seconds)
TwoMirCuts was tried 0 times and created 0 cuts of which 0 were active after adding rounds of cuts (0.000 seconds)
ZeroHalf was tried 0 times and created 0 cuts of which 0 were active after adding rounds of cuts (0.000 seconds)

Result - Optimal solution found

Objective value:                28672.00000000
Enumerated nodes:               0
Total iterations:               0
Time (CPU seconds):             0.50
Time (Wallclock seconds):       0.51

Total time (CPU seconds):       0.51   (Wallclock seconds):       0.52

